855912
67,12,62,92,61,30,59,31,73,69,0,36,47,86,44,3,65,6,80,85,13,38,91,83,72,21,42,23,51,64,53,97,22,10,27,45,33,70,89,58,18,11,16,93,25,78,28,39,50,77,24,94,46,56,32,8,19,20,95,29,76,55,68,74,5,40,17,9,48,71,54,43,90,52,7,88,84,4,63,26,1,2,96,41,34,66,60,57,81,15,14,82,87,49,75,37,35,98,79
